50

  0    9    3    7    3    3   10    8    3   10   12    7    8   10    8    1   13   14  175  187  180  181  176  175  187  191  185  180  179  184  178  183  183  180  177  169   95   95  109   99   96   94   96  109   97   94   99   91  102   97  
  9    0    8    3    6    7    2   11   12   11   11    5    4    3    4    8    4   13  167  179  172  172  168  167  178  182  177  172  171  176  170  174  175  171  169  161   99   99  113  104  100   98  100  113  101   99  103   95  107  101  
  3    8    0    6    2    4    7    5    5   12    9    8    8    9    8    2   11   15  175  187  180  180  176  174  186  190  184  180  178  184  178  182  182  179  177  169   93   94  107   97   94   92   94  107   95   93   97   89  101   95  
  7    3    6    0    4    4    4   10   10    9   11    3    3    3    3    6    7   11  169  180  174  174  169  168  180  184  178  174  172  178  172  176  176  173  171  163   98   99  113  103  100   97  100  113  101   99  103   95  106  101  
  3    6    2    4    0    2    6    7    6   10   10    6    6    7    6    2   10   13  173  184  178  178  173  172  184  188  182  178  176  182  176  180  180  177  175  167   95   96  110  100   96   94   97  109   98   95  100   92  103   98  
  3    7    4    4    2    0    7    9    5    8   12    5    5    7    5    2   11   12  173  184  178  178  173  172  184  188  182  178  176  181  175  180  180  177  174  166   97   97  111  101   98   96   98  111   99   96  101   93  104   99  
 10    2    7    4    6    7    0    9   12   13    9    7    6    5    6    8    4   15  168  180  173  173  169  167  179  183  177  173  172  177  171  175  175  172  170  162   97   97  112  102   98   96   98  111   99   98  101   94  105   99  
  8   11    5   10    7    9    9    0    9   17    5   13   12   13   13    8   12   21  177  189  182  183  178  177  188  192  187  183  181  186  180  184  185  182  179  171   88   89  103   93   89   87   90  103   90   89   92   85   96   91  
  3   12    5   10    6    5   12    9    0   11   13   10   10   12   11    4   16   15  178  189  183  183  178  178  189  193  187  183  181  187  180  185  185  182  180  172   94   94  108   97   94   93   94  107   96   93   98   89  100   96  
 10   11   12    9   10    8   13   17   11    0   20    6    7    9    7   10   15    4  169  180  173  173  168  168  179  184  178  173  171  177  171  176  175  172  170  162  105  105  119  108  106  104  106  119  107  104  109  100  112  107  
 12   11    9   11   10   12    9    5   13   20    0   14   14   13   14   11   11   22  174  186  179  180  176  174  186  190  184  180  178  184  178  182  182  179  177  169   88   88  103   94   90   87   90  103   90   89   92   85   97   90  
  7    5    8    3    6    5    7   13   10    6   14    0    1    3    1    7    9    8  168  180  173  173  169  168  179  184  178  173  171  177  171  175  175  172  170  162  101  101  115  105  102  100  102  115  103  101  105   97  109  103  
  8    4    8    3    6    5    6   12   10    7   14    1    0    3    1    7    8    9  168  179  173  173  168  168  179  183  177  173  171  177  170  175  175  172  170  162  101  101  115  105  102  100  102  115  103  101  105   97  109  103  
 10    3    9    3    7    7    5   13   12    9   13    3    3    0    2    9    6   10  166  178  171  171  167  166  177  181  175  171  169  175  169  173  173  170  168  160  101  101  116  106  102  100  102  115  103  102  105   98  109  103  
  8    4    8    3    6    5    6   13   11    7   14    1    1    2    0    7    8    9  167  179  172  172  168  167  178  183  177  172  171  176  170  174  175  171  169  161  101  101  116  106  102  100  102  115  103  101  105   97  109  103  
  1    8    2    6    2    2    8    8    4   10   11    7    7    9    7    0   12   14  174  186  180  180  175  174  186  190  184  180  178  183  177  182  182  179  176  168   95   95  109   99   96   94   96  109   97   95   99   91  102   97  
 13    4   11    7   10   11    4   12   16   15   11    9    8    6    8   12    0   16  164  177  170  170  166  164  176  180  174  170  168  174  168  172  172  169  167  159   99   99  114  104  100   98  100  113  100  100  103   96  108  101  
 14   13   15   11   13   12   15   21   15    4   22    8    9   10    9   14   16    0  165  176  170  170  165  165  176  180  174  169  168  173  167  172  172  168  166  158  109  109  123  112  109  108  110  122  111  108  113  104  116  111  
175  167  175  169  173  173  168  177  178  169  174  168  168  166  167  174  164  165    0   19    9   15   19    1   16   17   11   18   16   20   17   11   14   15   18   13  251  250  268  262  254  250  255  268  251  258  254  253  265  252  
187  179  187  180  184  184  180  189  189  180  186  180  179  178  179  186  177  176   19    0   10    7   12   18    5   10   11    7    8    4    9    9    5    7   10   18  266  266  283  276  269  265  270  283  267  272  270  267  280  268  
180  172  180  174  178  178  173  182  183  173  179  173  173  171  172  180  170  170    9   10    0    7   13    8    7   10    5   10    9   11   10    2    5    7   11   12  258  257  275  268  261  257  262  274  258  264  261  259  272  259  
181  172  180  174  178  178  173  183  183  173  180  173  173  171  172  180  170  170   15    7    7    0    7   14    7   13   10    3    2    5    4    7    3    1    5   12  259  259  277  270  262  259  263  276  260  266  263  261  273  261  
176  168  176  169  173  173  169  178  178  168  176  169  168  167  168  175  166  165   19   12   13    7    0   17   14   19   17    5    4    8    3   13   10    6    2   10  256  256  273  266  259  255  260  273  257  262  260  257  269  258  
175  167  174  168  172  172  167  177  178  168  174  168  168  166  167  174  164  165    1   18    8   14   17    0   15   17   11   17   15   19   16   10   13   14   16   11  251  250  268  262  254  250  255  268  252  258  255  253  265  253  
187  178  186  180  184  184  179  188  189  179  186  179  179  177  178  186  176  176   16    5    7    7   14   15    0    6    6    9    9    7   11    5    4    8   12   17  264  264  282  275  268  264  269  281  265  271  268  266  278  266  
191  182  190  184  188  188  183  192  193  184  190  184  183  181  183  190  180  180   17   10   10   13   19   17    6    0    6   15   15   13   17    8   10   14   17   22  267  267  285  279  271  267  272  284  268  274  271  269  282  269  
185  177  184  178  182  182  177  187  187  178  184  178  177  175  177  184  174  174   11   11    5   10   17   11    6    6    0   13   12   13   14    4    8   11   15   17  261  261  279  272  265  261  266  278  262  268  265  263  275  263  
180  172  180  174  178  178  173  183  183  173  180  173  173  171  172  180  170  169   18    7   10    3    5   17    9   15   13    0    2    4    2   10    6    3    3   12  260  260  277  270  263  259  264  277  261  266  264  261  273  262  
179  171  178  172  176  176  172  181  181  171  178  171  171  169  171  178  168  168   16    8    9    2    4   15    9   15   12    2    0    6    2    9    5    1    3   10  258  258  275  268  261  257  262  275  259  264  262  259  271  260  
184  176  184  178  182  181  177  186  187  177  184  177  177  175  176  183  174  173   20    4   11    5    8   19    7   13   13    4    6    0    6   10    6    6    7   16  264  263  281  274  267  263  268  280  264  270  268  265  277  265  
178  170  178  172  176  175  171  180  180  171  178  171  170  169  170  177  168  167   17    9   10    4    3   16   11   17   14    2    2    6    0   11    7    3    1   10  258  257  275  268  261  257  262  274  259  264  262  259  271  259  
183  174  182  176  180  180  175  184  185  176  182  175  175  173  174  182  172  172   11    9    2    7   13   10    5    8    4   10    9   10   11    0    5    8   11   14  260  259  277  271  263  259  264  277  260  266  264  262  274  261  
183  175  182  176  180  180  175  185  185  175  182  175  175  173  175  182  172  172   14    5    5    3   10   13    4   10    8    6    5    6    7    5    0    4    8   13  261  261  278  272  264  260  265  278  262  267  265  263  275  263  
180  171  179  173  177  177  172  182  182  172  179  172  172  170  171  179  169  168   15    7    7    1    6   14    8   14   11    3    1    6    3    8    4    0    4   11  258  258  276  269  262  258  263  275  259  265  262  260  272  260  
177  169  177  171  175  174  170  179  180  170  177  170  170  168  169  176  167  166   18   10   11    5    2   16   12   17   15    3    3    7    1   11    8    4    0   10  257  257  274  267  260  256  261  274  258  263  261  258  270  259  
169  161  169  163  167  166  162  171  172  162  169  162  162  160  161  168  159  158   13   18   12   12   10   11   17   22   17   12   10   16   10   14   13   11   10    0  248  247  265  258  251  247  252  265  249  254  252  249  261  250  
 95   99   93   98   95   97   97   88   94  105   88  101  101  101  101   95   99  109  251  266  258  259  256  251  264  267  261  260  258  264  258  260  261  258  257  248    0    1   18   18    5    1    8   17    3   17    4   14   19    2  
 95   99   94   99   96   97   97   89   94  105   88  101  101  101  101   95   99  109  250  266  257  259  256  250  264  267  261  260  258  263  257  259  261  258  257  247    1    0   18   19    7    2    9   18    2   18    4   15   21    2  
109  113  107  113  110  111  112  103  108  119  103  115  115  116  116  109  114  123  268  283  275  277  273  268  282  285  279  277  275  281  275  277  278  276  274  265   18   18    0   13   14   18   13    1   18   16   15   19   11   16  
 99  104   97  103  100  101  102   93   97  108   94  105  105  106  106   99  104  112  262  276  268  270  266  262  275  279  272  270  268  274  268  271  272  269  267  258   18   19   13    0   13   18   10   13   20    4   17    9    3   18  
 96  100   94  100   96   98   98   89   94  106   90  102  102  102  102   96  100  109  254  269  261  262  259  254  268  271  265  263  261  267  261  263  264  262  260  251    5    7   14   13    0    5    2   14    8   12    6    9   14    6  
 94   98   92   97   94   96   96   87   93  104   87  100  100  100  100   94   98  108  250  265  257  259  255  250  264  267  261  259  257  263  257  259  260  258  256  247    1    2   18   18    5    0    7   18    5   16    5   13   19    4  
 96  100   94  100   97   98   98   90   94  106   90  102  102  102  102   96  100  110  255  270  262  263  260  255  269  272  266  264  262  268  262  264  265  263  261  252    8    9   13   10    2    7    0   13   10    9    8    8   12    8  
109  113  107  113  109  111  111  103  107  119  103  115  115  115  115  109  113  122  268  283  274  276  273  268  281  284  278  277  275  280  274  277  278  275  274  265   17   18    1   13   14   18   13    0   17   16   14   18   11   16  
 97  101   95  101   98   99   99   90   96  107   90  103  103  103  103   97  100  111  251  267  258  260  257  252  265  268  262  261  259  264  259  260  262  259  258  249    3    2   18   20    8    5   10   17    0   20    4   17   21    2  
 94   99   93   99   95   96   98   89   93  104   89  101  101  102  101   95  100  108  258  272  264  266  262  258  271  274  268  266  264  270  264  266  267  265  263  254   17   18   16    4   12   16    9   16   20    0   17    5    8   18  
 99  103   97  103  100  101  101   92   98  109   92  105  105  105  105   99  103  113  254  270  261  263  260  255  268  271  265  264  262  268  262  264  265  262  261  252    4    4   15   17    6    5    8   14    4   17    0   15   18    2  
 91   95   89   95   92   93   94   85   89  100   85   97   97   98   97   91   96  104  253  267  259  261  257  253  266  269  263  261  259  265  259  262  263  260  258  249   14   15   19    9    9   13    8   18   17    5   15    0   12   15  
102  107  101  106  103  104  105   96  100  112   97  109  109  109  109  102  108  116  265  280  272  273  269  265  278  282  275  273  271  277  271  274  275  272  270  261   19   21   11    3   14   19   12   11   21    8   18   12    0   19  
 97  101   95  101   98   99   99   91   96  107   90  103  103  103  103   97  101  111  252  268  259  261  258  253  266  269  263  262  260  265  259  261  263  260  259  250    2    2   16   18    6    4    8   16    2   18    2   15   19    0  

  0    0   16    0    0    0    0   99    0    0    0    0    0    0    0    0    0    2    0    0    0    0    0    0    0    0    0   18    0   99    0   68    0    0    0    0    0    0    0    0    0   83    0   51    0    0    0    0   56    0  
  0    0    0    0    0    0    0    0    0    0   45    0    0    0    0   36    0    0    0    0   76   71    0    0    0    0    0    0    0    0    0    0    0    0    0    0    0    0    0   19   39    0   17    0    0   23   79    0    0   67  
 47    0    0    0   33    0    0    0    0   80    0   81    0    0    0    0    0    0    0    0    0    0    0    0    0    0    0   39   38   85   98   28    0    0    0    0    0    0    0    0    0    7    0    0    0    0    0    0   13    0  
  0    0    0    0    9    0    0    0    0   66    0    0    0    0    0    0    0    0    0   91    0    0    0    0    0    0    0    0    0   15    7    0    0    0    0    0    0   91    0    0    0    0    0    0   41    0    0    0    0    0  
  0    0   68   34    0    0    0    0    0   23    0    0    0    0    0    0    0    0    0   53    0    0    0    0    0    0    0   81   18   73   65    0    0    0    0    0    0   54    0    0    0   37    0    0    0    0    0    0   86    0  
  0    0    0    0    0    0   34    0    4    0    0    0   85   18    0    0    0    0   40    0    0    0    0    0    0    0    0    0    0    0    0    0   10    0   29    0    0    0    0    0    0    0    0    0    0    0    0    0    0    0  
  0    0    0    0    0   57    0    0   73    0    0    0    8   98    0    0    0    0   87    0    0    0    0    0    0    0    0    0    0    0    0    0   19    0   87    0    0    0    0    0    0    0    0    0    2    0    0    0    0    0  
 12    0    0    0    0    0    0    0    0    0   36    0    0    0   62    0   49   49    0    0    0    0    0    0    0    0    0    0    0    3    0    0    0    0    0    0    0    0    0    0    0    0    0   30    0    0    0    0   86    0  
  0    0    0    0    0   54   57    0    0    0    0    0   87   36    0    0    0    0   85    0    0    0    0    0    0    0    0    0    0    0    0    0   77    0    9    0    0    0    0    0    0    0    0    0    0    0    0    0    0    0  
  0    0   59   37   54    0    0    0    0    0    0   85    0    0    0    0    0    0    0    0    0    0    0    0    0    0    0   91   15   73   88    0    0    0    0    0    0   47    0    0    0   62    0    0    0    0    0    0   68    0  
  0   31    0    0    0    0    0   28    0    0    0    0    0    0   92    0    0   74    0    0    0    0   32    0    0    0    0    0    0    0    0    0    0    0    0    0    0    0    0   58    0    0    0   20    0    0    0    0    0    0  
  0    0   83    0    0    0    0    0    0   79    0    0    0    0    0    0    0    0    0    0    0    0    0    0    0    0    0    9   32    0    0    0    0    0    0    0    0    0    0    0    0   21    0    0    0    0    0    0    0    0  
  0    0    0    0    0   19   20    0   63    0    0    0    0   88    0    0    0    0   25    0    0    0    0    0    0    0    0    0    0    0    0    0   86    0   86    0    0    0    0    0    0    0    0    0    0    0    0    0    0    0  
  0    0    0    0    0   49   37    0   61    0    0    0   83    0    0    0   67    0   84    0    0    0    0    0    0    0    0    0    0    0    0    0    0    0    1    0    0    0    0    0    0    0    0    0    0    0    0    0    0    0  
  0    0    0    0    0    0    0   51    0    0   21    0    0    0    0    0   77   14    0    0    0    0   38    0    0    0    0    0    0    0    0    0    0    0    0    0    0    0    0    0    0    0    0   61    0    0    0    0    0    0  
  0   40    0    0    0    0    0    0    0    0    0    0    0    0    0    0    0    0    0    0   75   49    0    0    0   78    0    0    0    0    0    0    0    0    0    0    0    0    0    0   92    0    0    0    0    0    5    0    0   26  
  0    0    0    0    0    0    0   48    0    0    0    0    0   55   88    0    0    0    0    0    0    0    0    0    0    0    0    0    0    0    0    0    0    0   71    0    0   55    0    0    0    0    0    0    0    0    0    0    5    0  
 93    0    0    0    0    0    0   67    0    0   50    0    0    0   66    0    0    0    0    0    0    0    0    0    0    0    0    0    0    0    0    0    0    0    0    0    0    0    0    0    0    0    0    1    0    0    0    0   45    0  
  0    0    0    0    0   37   22    0   70    0    0    0   56   31    0    0    0    0    0    0    0    0    0    0    0    0    0    0    0    0    0    0    0    0    0    0   36    0    0    0    0    0    0    0    0    0    0    0    0    0  
  0    0    0   55   57    0    0    0    0    0    0    0    0    0    0    0    0    0    0    0    0    0    0    0    0    0    0    0    0    0    8    0    0    0    0    0    0   87    0    0    0    0    0    0   51    0    0    0    0    0  
  0   15    0    0    0    0    0    0    0    0    0    0    0    0    0   39    0    0    0    0    0   24    0    0    0   36    0    0    0    0    0    0    0    0    0    0    0    0    0    0    7    0    0    0    0    0   18    0    0   71  
  0   42    0    0    0    0    0    0    0    0    0    0    0    0    0    4    0    0    0    0   18    0    0    0    0   15    0    0    0    0    0    0    0    0    0    0    0    0    0    0   28    0    0    0    0    0   65    0    0   54  
  0    0    0    0    0    0    0    0    0    0   88    0    0    0    6    0    0    0    0    0    0    0    0    0    0    0   22    0    0    0    0    0    0    0    0   28    0    0    0   82    0    0   54    0    0    0    0   27    0    0  
  0    0    0    0    0    0    0    0    0    0    0    0    0    0    0    0    0    0    0    0    0    0    0    0   92    0   48    0    0    0    0    0    0    0    0    0    0    0    0    0    0    0    0    0    0    0    0    0    0    0  
  0    0    0    0    0    0    0    0    0    0    0    0    0    0    0    0    0    0    0    0    0    0    0   83    0    0    6    0    0    0    0    0    0   82    0    0   51    0    0    0    0    0    0    0    0    0    0    0    0    0  
  0    0    0    0    0    0    0    0    0    0    0    0    0    0    0    5    0    0    0    0   35   29    0    0    0    0    0    0    0    0    0   13    0    0    0    0    0    0    0    0   41    0    0   17    0    0   82    0    0   73  
  0    0    0    0    0    0    0    0    0    0    0    0    0    0    0    0    0    0    0    0    0    0   20    6   25    0    0    0    0    0    0    0    0   36    0   84    0    0    0    0    0    0    0    0    0    0    0   94    0    0  
 97    0   25    0   14    0    0    0    0    5    0   32    0    0    0    0    0    0    0    0    0    0    0    0    0    0    0    0   64   89    0   66    0    0    0    0    0    0    0    0    0   54    0    0    0    0    0    0   39    0  
  0    0   14    0   82    0    0    0    0   72    0   39    0    0    0    0    0    0    0    0    0    0    0    0    0    0    0   38    0   18   51    0    0    0    0    0    0    0    0    0    0   72    0    0    0    0    0    0    0    0  
 78    0   31    6   15    0    0   16    0   52    0    0    0    0    0    0    0    0    0    0    0    0    0    0    0    0    0   49   44    0   33    0    0    0    0    0    0   13    0    0    0    4    0    0    0    0    0    0   38    0  
  0    0   11   99   87    0    0    0    0   64    0    0    0    0    0    0    0    0    0   39    0    0    0    0    0    0    0    0   30   28    0    0    0    0    0    0    0    2    0    0    0   93    0    0    0    0    0    0    0    0  
  2    0   19    0    0    0    0    0    0    0    0    0    0    0    0    0    0    0    0    0    0    0    0    0    0   84    0   75    0    0    0    0    0    0    0    0    0    0   42    0    0   91    0    0    0    0    0    0    0    0  
  0    0    0    0    0   13   40    0   41    0    0    0   12    0    0    0    0    0    0    0    0    0    0    0    0    0    0    0    0    0    0    0    0    0   84    0    0    0    0    0    0    0    0    0   52    0    0    0    0    0  
  0    0    0    0    0    0    0    0    0    0    0    0    0    0    0    0    0    0    0    0    0    0    0    0   28    0   93    0    0    0    0    0    0    0    0    0    5    0    0    0    0    0    0    0    0    0    0    0    0    0  
  0    0    0    0    0    1   10    0   98    0    0    0   29   95    0    0   32    0    0    0    0    0    0    0    0    0    0    0    0    0    0    0   70    0    0    0    0    0    0    0    0    0    0    0   77    0    0    0    0    0  
  0    0    0    0    0    0    0    0    0    0    0    0    0    0    0    0    0    0    0    0    0    0   90    0    0    0   61    0    0    0    0    0    0    0    0    0    0    0    0   91    0    0    0    0    0    0    0   71    0    0  
  0    0    0    0    0    0    0    0    0    0    0    0    0    0    0    0    0    0   80    0    0    0    0    0    1    0    0    0    0    0    0    0    0   13    0    0    0    0    0    0    0    0    0    0    0    0    0    0    0    0  
  0    0    0   68   54    0    0    0    0   13    0    0    0    0    0    0   83    0    0   88    0    0    0    0    0    0    0    0    0   70    4    0    0    0    0    0    0    0    0    0    0    0    0    0   22    0    0    0    5    0  
  0    0    0    0    0    0    0    0    0    0    0    0    0    0    0    0    0    0    0    0    0    0    0    0    0    0    0    0    0    0    0   84    0    0    0    0    0    0    0    0    0    0    0    0    0    0    0    0    0    0  
  0   23    0    0    0    0    0    0    0    0   70    0    0    0    0    0    0    0    0    0    0    0   77    0    0    0    0    0    0    0    0    0    0    0    0   75    0    0    0    0    0    0   89    0    0    0    0   58    0    0  
  0   67    0    0    0    0    0    0    0    0    0    0    0    0    0   59    0    0    0    0    3   50    0    0    0   24    0    0    0    0    0    0    0    0    0    0    0    0    0    0    0    0    0    0    0    0   73    0    0   55  
 34    0    5    0   66    0    0    0    0   56    0   78    0    0    0    0    0    0    0    0    0    0    0    0    0    0    0    5   22   85   71   76    0    0    0    0    0    0    0    0    0    0    0    0    0    0    0    0   81    0  
  0    4    0    0    0    0    0    0    0    0    0    0    0    0    0    0    0    0    0    0    0    0   51    0    0    0    0    0    0    0    0    0    0    0    0    0    0    0    0    4    0    0    0    0    0   49    0    0    0    0  
 44    0    0    0    0    0    0   51    0    0   87    0    0    0    8    0    0   14    0    0    0    0    0    0    0   61    0    0    0    0    0    0    0    0    0    0    0    0    0    0    0    0    0    0    0    0    0    0    0    0  
  0    0    0   27    0    0   30    0    0    0    0    0    0    0    0    0    0    0    0   74    0    0    0    0    0    0    0    0    0    0    0    0   64    0   48    0    0    5    0    0    0    0    0    0    0    0    0    0    0    0  
  0   80    0    0    0    0    0    0    0    0    0    0    0    0    0    0    0    0    0    0    0    0    0    0    0    0    0    0    0    0    0    0    0    0    0    0    0    0    0    0    0    0   85    0    0    0    0    0    0    0  
  0   46    0    0    0    0    0    0    0    0    0    0    0    0    0   67    0    0    0    0   36   29    0    0    0   85    0    0    0    0    0    0    0    0    0    0    0    0    0    0   97    0    0    0    0    0    0    0    0   82  
  0    0    0    0    0    0    0    0    0    0    0    0    0    0    0    0    0    0    0    0    0    0   60    0    0    0   74    0    0    0    0    0    0    0    0   64    0    0    0   20    0    0    0    0    0    0    0    0    0    0  
 40    0    1    0   91    0    0   24    0   60    0    0    0    0    0    0   10   49    0    0    0    0    0    0    0    0    0   77    0   21    0    0    0    0    0    0    0   27    0    0    0    3    0    0    0    0    0    0    0    0  
  0   16    0    0    0    0    0    0    0    0    0    0    0    0    0    4    0    0    0    0   98   76    0    0    0   45    0    0    0    0    0    0    0    0    0    0    0    0    0    0   86    0    0    0    0    0   62    0    0    0  
